(set-info :smt-lib-version 2.7)
(set-logic QF_EIA)
(set-info :source |
Generated by: Florian Frohn
Generator: LoAT
Application: proving unsatisfiability of CHCs
Target solver: SwInE
Time limit: 1.0
Benchmarks generated by the verification tool LoAT to evaluate the SMT solver
SwInE. We extracted all benchmarks with exponentiation that were generated by
LoAT when analyzing the examples from the category LIA-Lin (linear CHCs with
linear integer arithmetic) of the CHC competitions 2022 and 2023, and when
analyzing the examples from the categories "Termination of Integer Transition
Systems" and "Complexity of Integer Transition Systems" of the Termination and
Complexity Competition 2024. From the entire set, we selected those where
* SwInE v0.1.0 or SwInE-Z3 v0.1.2 failed or needed more than 1 second, or
* SwInE-Z3 v0.1.2 failed without phasing, a technique to prevent SwInE from
  computing with huge constants (described here
  https://arxiv.org/abs/2502.04761)
If several selected benchmarks only differed in lines not containing
exponentiation, we kept only one of them. This benchmark is known to be
satisfiable with the slightly different semantics of exponentiation used by the
versions of SwInE mentioned above.
|)
(set-info :license "https://creativecommons.org/licenses/by/4.0/")
(set-info :category "industrial")
(set-info :status unknown)

(declare-fun i1 () Int)
(declare-fun it579 () Int)
(declare-fun it580 () Int)
(declare-fun it15 () Int)
(declare-fun it14 () Int)
(declare-fun it581 () Int)
(declare-fun it582 () Int)
(declare-fun it13 () Int)
(declare-fun bt633 () Bool)
(declare-fun bt634 () Bool)
(declare-fun bt635 () Bool)
(declare-fun bt636 () Bool)
(declare-fun it17 () Int)
(declare-fun it16 () Int)
(declare-fun it18 () Int)
(declare-fun bt25 () Bool)
(declare-fun bt28 () Bool)
(declare-fun bt26 () Bool)
(declare-fun bt27 () Bool)
(declare-fun it588 () Int)
(declare-fun it589 () Int)
(declare-fun it590 () Int)
(declare-fun it591 () Int)
(declare-fun bt637 () Bool)
(declare-fun bt638 () Bool)
(declare-fun bt639 () Bool)
(declare-fun bt640 () Bool)
(declare-fun it356 () Int)
(declare-fun it665 () Int)
(declare-fun it666 () Int)
(declare-fun it667 () Int)
(declare-fun it668 () Int)
(declare-fun bt709 () Bool)
(declare-fun bt710 () Bool)
(declare-fun bt711 () Bool)
(declare-fun bt712 () Bool)
(declare-fun bt643 () Bool)
(declare-fun it594 () Int)
(declare-fun it593 () Int)
(declare-fun bt641 () Bool)
(declare-fun it592 () Int)
(declare-fun bt642 () Bool)
(declare-fun bt644 () Bool)
(declare-fun it672 () Int)
(declare-fun it673 () Int)
(declare-fun it674 () Int)
(declare-fun it675 () Int)
(declare-fun bt713 () Bool)
(declare-fun bt714 () Bool)
(declare-fun bt715 () Bool)
(declare-fun bt716 () Bool)
(assert (= (+ i1 (- 1)) 0))
(assert (= (+ it579 (- 2)) 0))
(assert (= (+ (* it15 (- 1)) it580) 0))
(assert (= (+ it581 (* it14 (- 1))) 0))
(assert (= (+ (* it13 (- 1)) it582) 0))
(assert (or (and false bt633) (not bt633)))
(assert (or (and false (not bt634)) bt634))
(assert (or (and false bt635) (not bt635)))
(assert (or (and false bt636) (not bt636)))
(assert (and bt27
     (not bt26)
     (not bt28)
     (not bt25)
     (= (+ it18 (- 1)) 0)
     (= (+ it579 (- 2)) 0)
     (= (+ (* it16 (- 1)) it582) 0)
     (not bt633)
     (= (+ it581 (* it17 (- 1))) 0)
     bt634
     (not bt635)
     (not bt636)))
(assert (= (+ it588 (- 2)) 0))
(assert (= (+ (* it18 (- 1)) it589) 0))
(assert (= (+ it590 (* it17 (- 1))) 0))
(assert (= (+ (* it16 (- 1)) it591) 0))
(assert (or (and bt27 bt637) (and (not bt27) (not bt637))))
(assert (or (and bt28 bt638) (and (not bt28) (not bt638))))
(assert (or (and (not bt26) (not bt639)) (and bt26 bt639)))
(assert (or (and (not bt25) (not bt640)) (and bt25 bt640)))
(assert (let ((a!1 (+ (* (+ 0 it589) (** 3 (+ it356 (- 1))) (+ 0 (- 1)))
              (+ 0 it591))))
  (and (> a!1 (+ 0 0))
       (> (+ (* it589 (- 1)) it591) 0)
       (>= (+ (* it588 (- 1)) 2) 0)
       bt637
       (not bt638)
       (>= (* it590 (- 1)) 0)
       (>= (+ it588 (- 2)) 0)
       (not bt640)
       (not bt639)
       (>= (+ it356 (- 1)) 0))))
(assert (= (+ (* it588 (- 1)) it665) 0))
(assert (= (+ (* (+ 0 it589) (** 3 it356) (+ 0 (- 1))) (+ 0 it666))
   (+ 0 0)))
(assert (= (+ (* it590 (- 1)) it667) 0))
(assert (= (+ it668 (* it591 (- 1))) 0))
(assert (or (and false (not bt709)) bt709))
(assert (or (and false bt710) (not bt710)))
(assert (or (and false bt711) (not bt711)))
(assert (or (and false bt712) (not bt712)))
(assert (and (not bt711)
     (not bt644)
     bt642
     (= (+ it665 (- 2)) 0)
     (= (+ (* it592 (- 1)) it666) 0)
     bt641
     (= (+ (* it593 (- 1)) it667) 0)
     (> (+ it668 (* it666 (- 1))) 0)
     bt709
     (= (+ it668 (* it594 (- 1))) 0)
     (not bt710)
     (not bt643)
     (not bt712)))
(assert (= (+ it672 (- 2)) 0))
(assert (= (+ (* it592 (- 1)) it673) 0))
(assert (= (+ (* it593 (- 1)) it674) 0))
(assert (= (+ it675 (* it594 (- 1))) 0))
(assert (or (and (not bt713) (not bt642)) (and bt642 bt713)))
(assert (or (and bt714 bt641) (and (not bt714) (not bt641))))
(assert (or (and (not bt715) (not bt643)) (and bt643 bt715)))
(assert (or (and (not bt644) (not bt716)) (and bt644 bt716)))
(check-sat)
(exit)
